(set-logic HORN)
(declare-datatypes ((Nat_1 0)) (((Z_4 ) (Z_5 (unS_0 Nat_1)))))
(declare-fun diseqNat_1 (Nat_1 Nat_1) Bool)
(declare-datatypes ((list_0 0)) (((nil_0 ) (cons_0 (head_0 Nat_1) (tail_0 list_0)))))
(declare-fun diseqlist_0 (list_0 list_0) Bool)
(declare-datatypes ((Nat_0 0)) (((Z_0 ) (S_0 (projS_0 Nat_0)))))
(declare-fun take_0 (list_0 Nat_0 list_0) Bool)
(declare-fun len_0 (Nat_0 list_0) Bool)
(declare-fun butlast_0 (list_0 list_0) Bool)
(declare-fun x_7 (Nat_0 Nat_0 Nat_0) Bool)
(assert (forall ((x_56 Nat_1))
	(diseqNat_1 Z_4 (Z_5 x_56))))
(assert (forall ((x_57 Nat_1))
	(diseqNat_1 (Z_5 x_57) Z_4)))
(assert (forall ((x_58 Nat_1) (x_59 Nat_1))
	(=> (diseqNat_1 x_58 x_59) (diseqNat_1 (Z_5 x_58) (Z_5 x_59)))))
(assert (forall ((x_36 Nat_1) (x_37 list_0))
	(diseqlist_0 nil_0 (cons_0 x_36 x_37))))
(assert (forall ((x_38 Nat_1) (x_39 list_0))
	(diseqlist_0 (cons_0 x_38 x_39) nil_0)))
(assert (forall ((x_40 Nat_1) (x_41 list_0) (x_42 Nat_1) (x_43 list_0))
	(=> (diseqNat_1 x_40 x_42) (diseqlist_0 (cons_0 x_40 x_41) (cons_0 x_42 x_43)))))
(assert (forall ((x_40 Nat_1) (x_41 list_0) (x_42 Nat_1) (x_43 list_0))
	(=> (diseqlist_0 x_41 x_43) (diseqlist_0 (cons_0 x_40 x_41) (cons_0 x_42 x_43)))))
(assert (forall ((x_11 list_0) (x_1 Nat_1) (x_2 list_0) (z_1 Nat_0))
	(=> (take_0 x_11 z_1 x_2) (take_0 (cons_0 x_1 x_11) (S_0 z_1) (cons_0 x_1 x_2)))))
(assert (forall ((z_1 Nat_0))
	(take_0 nil_0 (S_0 z_1) nil_0)))
(assert (forall ((y_0 list_0))
	(take_0 nil_0 Z_0 y_0)))
(assert (forall ((x_15 Nat_0) (y_1 Nat_1) (xs_0 list_0))
	(=> (len_0 x_15 xs_0) (len_0 (S_0 x_15) (cons_0 y_1 xs_0)))))
(assert (len_0 Z_0 nil_0))
(assert (forall ((x_18 list_0) (x_5 Nat_1) (x_6 list_0) (y_2 Nat_1))
	(=> (butlast_0 x_18 (cons_0 x_5 x_6)) (butlast_0 (cons_0 y_2 x_18) (cons_0 y_2 (cons_0 x_5 x_6))))))
(assert (forall ((y_2 Nat_1))
	(butlast_0 nil_0 (cons_0 y_2 nil_0))))
(assert (butlast_0 nil_0 nil_0))
(assert (forall ((x_21 Nat_0) (x_9 Nat_0) (z_3 Nat_0))
	(=> (x_7 x_21 z_3 x_9) (x_7 x_21 (S_0 z_3) (S_0 x_9)))))
(assert (forall ((z_3 Nat_0))
	(x_7 (S_0 z_3) (S_0 z_3) Z_0)))
(assert (forall ((y_3 Nat_0))
	(x_7 Z_0 Z_0 y_3)))
(assert (forall ((x_25 list_0) (x_26 Nat_0) (x_27 Nat_0) (x_28 list_0) (xs_1 list_0))
	(=> (and (diseqlist_0 x_25 x_28) (butlast_0 x_25 xs_1) (len_0 x_26 xs_1) (x_7 x_27 x_26 (S_0 Z_0)) (take_0 x_28 x_27 xs_1)) false)))
(check-sat)
(get-model)
